(declare-const delta___cost Int)
(declare-const delta_y Int)
(assert (exists ((|y'?1| Int) (|__cost'?2| Int) (y?3 Int) (__cost?4 Int))
         (and (<= (+ (- y?3) 100) 0) (<= (- __cost?4) 0)
                (<= (+ (- __cost?4) -1) 0) (= (+ |y'?1| (- y?3) 100) 0)
                (= (+ |__cost'?2| (- __cost?4) -1) 0)
                (= delta___cost (+ |__cost'?2| (- __cost?4)))
                (= delta_y (+ |y'?1| (- y?3))))))
(check-sat)
